(set-logic QF_UF)
(declare-fun A0 () Bool)
(declare-fun A1 () Bool)
(declare-fun A2 () Bool)
(declare-fun A3 () Bool)
(declare-fun A4 () Bool)
(declare-fun A6 () Bool)
(declare-fun A7 () Bool)
(declare-fun A8 () Bool)
(declare-fun A9 () Bool)
(declare-fun A10 () Bool)
(declare-fun A11 () Bool)
(declare-fun A12 () Bool)
(declare-fun A13 () Bool)
(declare-fun A14 () Bool)
(declare-fun A17 () Bool)
(declare-fun A18 () Bool)
(declare-fun A20 () Bool)
(declare-fun A21 () Bool)
(declare-fun A22 () Bool)
(declare-fun A23 () Bool)
(declare-fun A24 () Bool)
(assert (let ((.def_0 (and A11 A1))) (let ((.def_1 (not .def_0))) (let ((.def_2 (not A12))) (let ((.def_3 (= .def_2 A17))) (let ((.def_4 (and .def_3 .def_1))) (let ((.def_5 (not .def_4))) (let ((.def_6 (not A23))) (let ((.def_7 (= .def_6 A23))) (let ((.def_8 (not .def_7))) (let ((.def_9 (and A20 A12))) (let ((.def_10 (not .def_9))) (let ((.def_11 (or .def_10 .def_8))) (let ((.def_12 (not .def_11))) (let ((.def_13 (and .def_12 .def_5))) (let ((.def_14 (and A8 A18))) (let ((.def_15 (not A9))) (let ((.def_16 (not A20))) (let ((.def_17 (or .def_16 .def_15))) (let ((.def_18 (and .def_17 .def_14))) (let ((.def_19 (not A11))) (let ((.def_20 (and A23 .def_19))) (let ((.def_21 (not .def_20))) (let ((.def_22 (not A0))) (let ((.def_23 (and A0 .def_22))) (let ((.def_24 (or .def_23 .def_21))) (let ((.def_25 (and .def_24 .def_18))) (let ((.def_26 (and .def_25 .def_13))) (let ((.def_27 (and .def_6 A11))) (let ((.def_28 (not A17))) (let ((.def_29 (and A9 .def_28))) (let ((.def_30 (= .def_29 .def_27))) (let ((.def_31 (not .def_30))) (let ((.def_32 (not A21))) (let ((.def_33 (and A20 .def_32))) (let ((.def_34 (not .def_33))) (let ((.def_35 (not A13))) (let ((.def_36 (or .def_35 .def_15))) (let ((.def_37 (not .def_36))) (let ((.def_38 (or .def_37 .def_34))) (let ((.def_39 (and .def_38 .def_31))) (let ((.def_40 (not A6))) (let ((.def_41 (and .def_40 A14))) (let ((.def_42 (= .def_40 .def_28))) (let ((.def_43 (or .def_42 .def_41))) (let ((.def_44 (or .def_15 A14))) (let ((.def_45 (not .def_44))) (let ((.def_46 (not A2))) (let ((.def_47 (and .def_46 A4))) (let ((.def_48 (and .def_47 .def_45))) (let ((.def_49 (not .def_48))) (let ((.def_50 (and .def_49 .def_43))) (let ((.def_51 (not .def_50))) (let ((.def_52 (and .def_51 .def_39))) (let ((.def_53 (not .def_52))) (let ((.def_54 (or .def_53 .def_26))) (let ((.def_55 (or A3 A6))) (let ((.def_56 (not A4))) (let ((.def_57 (not A10))) (let ((.def_58 (and .def_57 .def_56))) (let ((.def_59 (not .def_58))) (let ((.def_60 (and .def_59 .def_55))) (let ((.def_61 (or .def_28 .def_16))) (let ((.def_62 (not .def_61))) (let ((.def_63 (not A8))) (let ((.def_64 (and .def_63 .def_2))) (let ((.def_65 (and .def_64 .def_62))) (let ((.def_66 (or .def_65 .def_60))) (let ((.def_67 (not .def_66))) (let ((.def_68 (not A1))) (let ((.def_69 (not A18))) (let ((.def_70 (or .def_69 .def_68))) (let ((.def_71 (and A17 .def_32))) (let ((.def_72 (not .def_71))) (let ((.def_73 (and .def_72 .def_70))) (let ((.def_74 (and A6 A21))) (let ((.def_75 (not A24))) (let ((.def_76 (and A3 .def_75))) (let ((.def_77 (not .def_76))) (let ((.def_78 (or .def_77 .def_74))) (let ((.def_79 (not .def_78))) (let ((.def_80 (or .def_79 .def_73))) (let ((.def_81 (or .def_80 .def_67))) (let ((.def_82 (or A11 .def_32))) (let ((.def_83 (not .def_82))) (let ((.def_84 (not A7))) (let ((.def_85 (not A22))) (let ((.def_86 (and .def_85 .def_84))) (let ((.def_87 (not .def_86))) (let ((.def_88 (and .def_87 .def_83))) (let ((.def_89 (not .def_88))) (let ((.def_90 (and A12 .def_6))) (let ((.def_91 (not .def_90))) (let ((.def_92 (and A23 .def_28))) (let ((.def_93 (or .def_92 .def_91))) (let ((.def_94 (or .def_93 .def_89))) (let ((.def_95 (not .def_94))) (let ((.def_96 (or .def_22 .def_19))) (let ((.def_97 (not .def_96))) (let ((.def_98 (= A23 A9))) (let ((.def_99 (not .def_98))) (let ((.def_100 (or .def_99 .def_97))) (let ((.def_101 (not .def_100))) (let ((.def_102 (and .def_68 .def_84))) (let ((.def_103 (not .def_102))) (let ((.def_104 (and A21 A17))) (let ((.def_105 (and .def_104 .def_103))) (let ((.def_106 (not .def_105))) (let ((.def_107 (or .def_106 .def_101))) (let ((.def_108 (not .def_107))) (let ((.def_109 (and .def_108 .def_95))) (let ((.def_110 (and .def_109 .def_81))) (let ((.def_111 (and .def_110 .def_54))) (let ((.def_112 (not .def_111))) .def_112))))))))))))))))))))))))))))))))))))))))))))))))))))))))))))))))))))))))))))))))))))))))))))))))))))))))))))))))))
(check-sat)
